Traveling Salesman Problem/TSP_generados/Aleatorio1620390950_10.tsp
NAME: Aleatorio1620390950_10.tsp
COMMENT: Randomly generated scenario
TYPE: TSP
DIMENSION: 10
EDGE_WEIGHT_TYPE: ATT
NODE_COORD_SECTION
1 25.56 21.79
2 16.01 47.23
3 22.07 5.88
4 29.23 30.53
5 1.71 11.12
6 33.07 28.13
7 7.65 3.79
8 27.63 13.63
9 45.42 11.29
10 24.75 9.23
