Traveling Salesman Problem/TSP_generados/Aleatorio1620390950_10.opt.tour
NAME: Aleatorio1620390950_10.opt.tour
COMMENT: Optimal solution for Aleatorio1620390950_10 (148.4565329905183)
TYPE: TOUR
DIMENSION: 10
TOUR_SECTION
1 6 4 2 5 7 3 10 8 9
-1
EOF
